weruSnowflake77.tsp
NAME : weruSnowflake77
COMMENT : Weru's Snowflake. 77-city "hard to solve" TSP
TYPE : TSP
DIMENSION : 77
EDGE_WEIGHT_TYPE : EUC_2D
NODE_COORD_SECTION
1 -700 -700
2 700 -700
3 200 0
4 0 200
5 -200 0
6 0 -200
7 0 0
8 -600 600
9 -500 600
10 -400 600
11 -300 600
12 -200 600
13 -100 600
14 0 600
15 100 600
16 200 600
17 300 600
18 400 600
19 500 600
20 600 600
21 -600 -600
22 -500 -600
23 -400 -600
24 -300 -600
25 -200 -600
26 -100 -600
27 0 -600
28 100 -600
29 200 -600
30 300 -600
31 400 -600
32 500 -600
33 600 -600
34 600 -500
35 600 -400
36 600 -300
37 600 -200
38 600 -100
39 600 0
40 600 100
41 600 200
42 600 300
43 600 400
44 600 500
45 -600 -500
46 -600 -400
47 -600 -300
48 -600 -200
49 -600 -100
50 -600 0
51 -600 100
52 -600 200
53 -600 300
54 -600 400
55 -600 500
56 -500 -500
57 -400 -400
58 -300 -300
59 -200 -200
60 -100 -100
61 100 100
62 200 200
63 300 300
64 400 400
65 500 500
66 100 -100
67 200 -200
68 300 -300
69 400 -400
70 500 -500
71 -100 100
72 -200 200
73 -300 300
74 -400 400
75 -500 500
76 700 700
77 -700 700
EOF