weruSnowflake77.txt
77
-700 -700
700 -700
200 0
0 200
-200 0
0 -200
0 0
-600 600
-500 600
-400 600
-300 600
-200 600
-100 600
0 600
100 600
200 600
300 600
400 600
500 600
600 600
-600 -600
-500 -600
-400 -600
-300 -600
-200 -600
-100 -600
0 -600
100 -600
200 -600
300 -600
400 -600
500 -600
600 -600
600 -500
600 -400
600 -300
600 -200
600 -100
600 0
600 100
600 200
600 300
600 400
600 500
-600 -500
-600 -400
-600 -300
-600 -200
-600 -100
-600 0
-600 100
-600 200
-600 300
-600 400
-600 500
-500 -500
-400 -400
-300 -300
-200 -200
-100 -100
100 100
200 200
300 300
400 400
500 500
100 -100
200 -200
300 -300
400 -400
500 -500
-100 100
-200 200
-300 300
-400 400
-500 500
700 700
-700 700